Ta1 Se2
1.0
1.749516 -3.030250 0.000000
1.749516 3.030250 0.000000
0.000000 0.000000 6.821600
Ta Se
1 2
direct
0.000000 0.000000 0.000000 Ta
0.666667 0.333333 0.756787 Se
0.333333 0.666667 0.243213 Se
