Hf1 Se2
1.0
1.886771 -3.267983 0.000000
1.886771 3.267983 0.000000
0.000000 0.000000 6.928519
Hf Se
1 2
direct
0.000000 0.000000 0.000000 Hf
0.666667 0.333333 0.772656 Se
0.333333 0.666667 0.227344 Se
