Ti1 Se2
1.0
1.772131 -3.069421 0.000000
1.772131 3.069421 0.000000
0.000000 0.000000 6.693806
Ti Se
1 2
direct
0.000000 0.000000 0.000000 Ti
0.333333 0.666667 0.231181 Se
0.666667 0.333333 0.768819 Se
