C2
1.0
2.130000 -1.229756 0.000000
2.130000 1.229756 0.000000
0.000000 0.000000 20.000000
C
2
direct
0.000000 0.000000 0.000000 C 
0.333333 0.333333 0.000000 C
