ADDGRID = .TRUE.
ALGO = N
AMIN = 0.01
BPARAM = 15.7
EDIFF = 1e-08
ENCUT = 800
IBRION = -1
ISMEAR = 0
ISTART = 0
LASPH = T
LREAL = .FALSE.
LUSE_VDW = T
LWAVE = .FALSE.
METAGGA = SCAN
NELMIN = 5
NPAR = 1
NSW = 100
PREC = Accurate
SIGMA = 0.01
SYMPREC = 0.0001
SYSTEM = TMDC
