Te2 Mo2 Pd1 W1 Se6
1.0
3.523961 0.000000 0.000000
-1.761980 3.051839 0.000000
0.000000 0.000000 40.865394
W Se Mo Se Mo Se Pd Te
1 2 1 2 1 2 1 2
Selective dynamics
direct
0.000000 0.000000 0.000000 F F F W
0.333333 0.666667 -0.041121 F F T Se
0.333333 0.666667 0.041121 F F T Se
0.333333 0.666667 0.212224 F F T Mo
0.000000 0.000000 0.171294 F F T Se
0.000000 0.000000 0.253154 F F T Se
0.333333 0.666667 0.405850 F F T Mo
0.000000 0.000000 0.364920 F F T Se
0.000000 0.000000 0.446780 F F T Se
0.000000 0.000000 0.591820 F F T Pd
0.333333 0.666667 0.558547 F F T Te
0.333333 0.666667 0.625094 F F T Te
