Mo2 W2 Se8
1.0
3.326281 0.000000 0.000000
-1.663140 2.880643 0.000000
0.000000 0.000000 41.186085
W Se Mo Se Mo Se W Se
1 2 1 2 1 2 1 2
direct
0.000000 0.000000 0.000000 W
0.333333 0.666667 -0.040801 Se
0.333333 0.666667 0.040801 Se
0.333333 0.666667 0.210572 Mo
0.000000 0.000000 0.169960 Se
0.000000 0.000000 0.251183 Se
0.333333 0.666667 0.402690 Mo
0.000000 0.000000 0.362079 Se
0.000000 0.000000 0.443301 Se
0.000000 0.000000 0.594998 W
0.333333 0.666667 0.554198 Se
0.333333 0.666667 0.635799 Se
