Te4 Mo2
1.0
1.779355 -3.081934 0.000000
1.779355 3.081934 0.000000
0.000000 0.000000 15.346645
Te Mo
4 2
direct
0.333333 0.666667 0.632080 Te
0.666667 0.333333 0.132080 Te
0.666667 0.333333 0.367920 Te
0.333333 0.666667 0.867920 Te
0.333333 0.666667 0.250000 Mo
0.666667 0.333333 0.750000 Mo
