Zr1 Se2
1.0
1.902342 -3.294953 0.000000
1.902342 3.294953 0.000000
0.000000 0.000000 6.686907
Zr Se
1 2
direct
0.000000 0.000000 0.000000 Zr
0.666667 0.333333 0.761837 Se
0.333333 0.666667 0.238163 Se
