Pt1 Se2
1.0
1.880512 -3.257143 0.000000
1.880512 3.257143 0.000000
0.000000 0.000000 6.117971
Pt Se
1 2
direct
0.000000 0.000000 0.000000 Pt
0.666667 0.333333 0.786417 Se
0.333333 0.666667 0.213583 Se
