Nb1 Se2
1.0
1.746587 -3.025177 0.000000
1.746587 3.025177 0.000000
0.000000 0.000000 28.215334
Nb Se
1 2
direct
0.000000 0.000000 0.000000 Nb
0.333333 0.666667 0.940305 Se
0.333333 0.666667 0.059695 Se
