Nb1 S2
1.0
1.688515 -2.924593 0.000000
1.688515 2.924593 0.000000
0.000000 0.000000 6.171842
Nb S
1 2
direct
0.000000 0.000000 0.000000 Nb
0.333333 0.666667 0.252799 S
0.666667 0.333333 0.747201 S
