Te2 Pd1
1.0
4.116332 0.000000 0.000000
-2.058166 3.564848 0.000000
0.000000 0.000000 5.170725
Te Pd
2 1
direct
0.333333 0.666667 0.262968 Te
0.666667 0.333333 0.737032 Te
0.000000 0.000000 0.000000 Pd
