Mo1 S2
1.0
3.190316 0.000000 0.000000
-1.595158 2.762894 0.000000
0.000000 0.000000 17.439502
Mo S
1 2
direct
0.000000 0.000000 0.000000 Mo
0.333333 0.666667 0.089732 S
0.333333 0.666667 0.910268 S
